p cnf 215 377               
-13 51 0
-1 45 0
-7 45 0
1 7 -45 0
-45 51 0
13 45 -51 0
51 85 0
-14 52 0
-2 46 0
-8 46 0
2 8 -46 0
-46 52 0
14 46 -52 0
52 57 0
51 57 0
-52 -51 -57 0
57 -67 0
-51 58 0
-52 58 0
51 52 -58 0
58 59 0
-15 53 0
-3 47 0
-9 47 0
3 9 -47 0
-47 53 0
15 47 -53 0
53 59 0
-58 -53 -59 0
59 -67 0
-53 60 0
-58 60 0
53 58 -60 0
60 61 0
-16 54 0
-4 48 0
-10 48 0
4 10 -48 0
-48 54 0
16 48 -54 0
54 61 0
-60 -54 -61 0
61 -67 0
-54 62 0
-60 62 0
54 60 -62 0
62 63 0
-17 55 0
-5 49 0
-11 49 0
5 11 -49 0
-49 55 0
17 49 -55 0
55 63 0
-62 -55 -63 0
63 -67 0
-55 64 0
-62 64 0
55 62 -64 0
64 65 0
-18 56 0
-6 50 0
-12 50 0
6 12 -50 0
-50 56 0
18 50 -56 0
56 65 0
-64 -56 -65 0
65 -67 0
-56 66 0
-64 66 0
56 64 -66 0
66 -67 0
-57 -59 -61 -63 -65 -66 67 0
-67 -51 79 0
67 -19 79 0
-51 -19 79 0
-79 85 0
52 86 0
-67 -52 80 0
67 -20 80 0
-52 -20 80 0
-80 86 0
53 87 0
-67 -53 81 0
67 -21 81 0
-53 -21 81 0
-81 87 0
54 88 0
-67 -54 82 0
67 -22 82 0
-54 -22 82 0
-82 88 0
55 89 0
-67 -55 83 0
67 -23 83 0
-55 -23 83 0
-83 89 0
56 90 0
-67 -56 84 0
67 -24 84 0
-56 -24 84 0
-84 90 0
-85 -86 -87 -88 -89 -90 91 0
-91 -92 0
-12 34 0
-11 33 0
-10 32 0
-9 31 0
-7 30 0
-8 30 0
7 8 -30 0
-30 31 0
9 30 -31 0
-31 32 0
10 31 -32 0
-32 33 0
11 32 -33 0
-33 34 0
12 33 -34 0
-6 29 0
-5 28 0
-4 27 0
-3 26 0
-1 25 0
-2 25 0
1 2 -25 0
-25 26 0
3 25 -26 0
-26 27 0
4 26 -27 0
-27 28 0
5 27 -28 0
-28 29 0
6 28 -29 0
-34 -29 -40 0
40 -44 0
-29 41 0
-34 41 0
29 34 -41 0
-18 39 0
-17 38 0
-16 37 0
-15 36 0
-13 35 0
-14 35 0
13 14 -35 0
-35 36 0
15 35 -36 0
-36 37 0
16 36 -37 0
-37 38 0
17 37 -38 0
-38 39 0
18 38 -39 0
-41 -39 -42 0
42 -44 0
39 41 -43 0
43 -44 0
44 -92 0
67 -92 0
-20 -19 -68 0
68 -78 0
-19 69 0
-20 69 0
19 20 -69 0
-69 -21 -70 0
70 -78 0
-21 71 0
-69 71 0
21 69 -71 0
-71 -22 -72 0
72 -78 0
-22 73 0
-71 73 0
22 71 -73 0
-73 -23 -74 0
74 -78 0
-23 75 0
-73 75 0
23 73 -75 0
-75 -24 -76 0
76 -78 0
24 75 -77 0
77 -78 0
78 -92 0
-1 7 -93 0
93 -115 0
-1 -7 94 0
1 7 94 0
-7 7 94 0
-2 8 -95 0
-94 95 -96 0
96 -115 0
-2 -8 97 0
2 8 97 0
-8 8 97 0
-94 -97 98 0
-3 9 -99 0
-98 99 -100 0
100 -115 0
-3 -9 101 0
3 9 101 0
-9 9 101 0
-98 -101 102 0
-4 10 -103 0
-102 103 -104 0
104 -115 0
-4 -10 105 0
4 10 105 0
-10 10 105 0
-102 -105 106 0
-5 11 -107 0
-106 107 -108 0
108 -115 0
-5 -11 109 0
5 11 109 0
-11 11 109 0
-106 -109 110 0
-6 12 -111 0
-110 111 -112 0
112 -115 0
115 -214 0
-7 13 -116 0
116 -138 0
-7 -13 117 0
7 13 117 0
-13 13 117 0
-8 14 -118 0
-117 118 -119 0
119 -138 0
-8 -14 120 0
8 14 120 0
-14 14 120 0
-117 -120 121 0
-9 15 -122 0
-121 122 -123 0
123 -138 0
-9 -15 124 0
9 15 124 0
-15 15 124 0
-121 -124 125 0
-10 16 -126 0
-125 126 -127 0
127 -138 0
-10 -16 128 0
10 16 128 0
-16 16 128 0
-125 -128 129 0
-11 17 -130 0
-129 130 -131 0
131 -138 0
-11 -17 132 0
11 17 132 0
-17 17 132 0
-129 -132 133 0
-12 18 -134 0
-133 134 -135 0
135 -138 0
138 -214 0
-19 20 -139 0
139 -153 0
-19 -20 140 0
19 20 140 0
-20 20 140 0
-1 2 -141 0
-140 141 -142 0
142 -153 0
-1 -2 143 0
1 2 143 0
-2 2 143 0
-140 -143 144 0
-7 8 -145 0
-144 145 -146 0
146 -153 0
-7 -8 147 0
7 8 147 0
-8 8 147 0
-144 -147 148 0
-13 14 -149 0
-148 149 -150 0
150 -153 0
153 -214 0
-20 21 -154 0
154 -168 0
-20 -21 155 0
20 21 155 0
-21 21 155 0
-2 3 -156 0
-155 156 -157 0
157 -168 0
-2 -3 158 0
2 3 158 0
-3 3 158 0
-155 -158 159 0
-8 9 -160 0
-159 160 -161 0
161 -168 0
-8 -9 162 0
8 9 162 0
-9 9 162 0
-159 -162 163 0
-14 15 -164 0
-163 164 -165 0
165 -168 0
168 -214 0
-21 22 -169 0
169 -183 0
-21 -22 170 0
21 22 170 0
-22 22 170 0
-3 4 -171 0
-170 171 -172 0
172 -183 0
-3 -4 173 0
3 4 173 0
-4 4 173 0
-170 -173 174 0
-9 10 -175 0
-174 175 -176 0
176 -183 0
-9 -10 177 0
9 10 177 0
-10 10 177 0
-174 -177 178 0
-15 16 -179 0
-178 179 -180 0
180 -183 0
183 -214 0
-22 23 -184 0
184 -198 0
-22 -23 185 0
22 23 185 0
-23 23 185 0
-4 5 -186 0
-185 186 -187 0
187 -198 0
-4 -5 188 0
4 5 188 0
-5 5 188 0
-185 -188 189 0
-10 11 -190 0
-189 190 -191 0
191 -198 0
-10 -11 192 0
10 11 192 0
-11 11 192 0
-189 -192 193 0
-16 17 -194 0
-193 194 -195 0
195 -198 0
198 -214 0
-23 24 -199 0
199 -213 0
-23 -24 200 0
23 24 200 0
-24 24 200 0
-5 6 -201 0
-200 201 -202 0
202 -213 0
-5 -6 203 0
5 6 203 0
-6 6 203 0
-200 -203 204 0
-11 12 -205 0
-204 205 -206 0
206 -213 0
-11 -12 207 0
11 12 207 0
-12 12 207 0
-204 -207 208 0
-17 18 -209 0
-208 209 -210 0
210 -213 0
213 -214 0
92 0
214 0
